words_hard_train/6842.qaiger
aag 130 24 0 1 106
2
4
8
10
14
22
34
42
54
62
74
82
94
102
114
140
142
146
168
182
196
208
224
242
260
6 2 4
12 8 10
16 10 14
18 11 15
20 17 19
24 21 23
26 20 22
28 25 27
30 12 28
32 31 27
36 19 34
38 18 35
40 37 39
44 41 43
46 40 42
48 45 47
50 33 48
52 51 47
56 39 54
58 38 55
60 57 59
64 61 63
66 60 62
68 65 67
70 53 68
72 71 67
76 59 74
78 58 75
80 77 79
84 81 83
86 80 82
88 85 87
90 73 88
92 91 87
96 79 94
98 78 95
100 97 99
104 101 103
106 100 102
108 105 107
110 93 108
112 111 107
116 98 115
118 99 114
120 117 119
122 121 5
124 120 4
126 123 125
128 112 127
130 113 126
132 129 131
134 7 133
136 6 132
138 135 137
144 141 142
148 145 146
150 144 147
152 149 151
154 153 116
156 152 117
158 155 157
160 131 125
162 159 160
164 158 161
166 163 165
170 168 82
172 72 89
174 173 91
176 171 174
178 170 175
180 177 179
184 182 22
186 13 29
188 187 31
190 184 189
192 185 188
194 191 193
198 196 42
200 32 49
202 201 51
204 199 202
206 194 205
210 208 62
212 52 69
214 213 71
216 210 215
218 206 217
220 180 218
222 198 203
226 225 8
228 227 10
230 226 11
232 229 231
234 223 232
236 211 214
238 234 237
240 220 238
244 242 102
246 92 109
248 247 111
250 245 248
252 244 249
254 251 253
256 240 254
258 166 256
260 139 258
i0 1 x2[1]
i1 1 x1[6]
i2 1 x1[0]
i3 2 y1[0]
i4 2 y1[1]
i5 1 x1[1]
i6 2 y1[2]
i7 1 x1[2]
i8 2 y1[3]
i9 1 x1[3]
i10 2 y1[4]
i11 1 x1[4]
i12 2 y1[5]
i13 1 x1[5]
i14 2 y1[6]
i15 1 x2[0]
i16 1 x1[7]
i17 2 y1[7]
i18 1 x2[3]
i19 1 x2[6]
i20 1 x2[5]
i21 1 x2[4]
i22 1 x2[7]
i23 1 x2[2]
o0 bool[0]
c
simplified
  ==
    subtract
      1 x1
      2 y1
    and
      1 x1
      reverse
        1 x2
