words_hard_train/6842.qaiger.qdimacs
p cnf 130 319
a 1 2 98 4 70 71 104 41 11 112 51 84 21 121 91 31 0
e 3 5 6 7 8 9 10 12 13 14 15 16 17 18 19 20 22 23 24 25 26 27 28 29 30 32 33 34 35 36 37 38 39 40 42 43 44 45 46 47 48 49 50 52 53 54 55 56 57 58 59 60 61 62 63 64 65 66 67 68 69 72 73 74 75 76 77 78 79 80 81 82 83 85 86 87 88 89 90 92 93 94 95 96 97 99 100 101 102 103 105 106 107 108 109 110 111 113 114 115 116 117 118 119 120 122 123 124 125 126 127 128 129 130 0
-1 -2 3 0
1 -3 0
2 -3 0
-4 -5 6 0
4 -6 0
5 -6 0
-5 -7 8 0
5 -8 0
7 -8 0
5 7 9 0
-5 -9 0
-7 -9 0
8 9 10 0
-8 -10 0
-9 -10 0
10 11 12 0
-10 -12 0
-11 -12 0
-10 -11 13 0
10 -13 0
11 -13 0
12 13 14 0
-12 -14 0
-13 -14 0
-6 -14 15 0
6 -15 0
14 -15 0
15 13 16 0
-15 -16 0
-13 -16 0
9 -17 18 0
-9 -18 0
17 -18 0
-9 17 19 0
9 -19 0
-17 -19 0
18 19 20 0
-18 -20 0
-19 -20 0
20 21 22 0
-20 -22 0
-21 -22 0
-20 -21 23 0
20 -23 0
21 -23 0
22 23 24 0
-22 -24 0
-23 -24 0
16 -24 25 0
-16 -25 0
24 -25 0
25 23 26 0
-25 -26 0
-23 -26 0
19 -27 28 0
-19 -28 0
27 -28 0
-19 27 29 0
19 -29 0
-27 -29 0
28 29 30 0
-28 -30 0
-29 -30 0
30 31 32 0
-30 -32 0
-31 -32 0
-30 -31 33 0
30 -33 0
31 -33 0
32 33 34 0
-32 -34 0
-33 -34 0
26 -34 35 0
-26 -35 0
34 -35 0
35 33 36 0
-35 -36 0
-33 -36 0
29 -37 38 0
-29 -38 0
37 -38 0
-29 37 39 0
29 -39 0
-37 -39 0
38 39 40 0
-38 -40 0
-39 -40 0
40 41 42 0
-40 -42 0
-41 -42 0
-40 -41 43 0
40 -43 0
41 -43 0
42 43 44 0
-42 -44 0
-43 -44 0
36 -44 45 0
-36 -45 0
44 -45 0
45 43 46 0
-45 -46 0
-43 -46 0
39 -47 48 0
-39 -48 0
47 -48 0
-39 47 49 0
39 -49 0
-47 -49 0
48 49 50 0
-48 -50 0
-49 -50 0
50 51 52 0
-50 -52 0
-51 -52 0
-50 -51 53 0
50 -53 0
51 -53 0
52 53 54 0
-52 -54 0
-53 -54 0
46 -54 55 0
-46 -55 0
54 -55 0
55 53 56 0
-55 -56 0
-53 -56 0
-49 57 58 0
49 -58 0
-57 -58 0
49 -57 59 0
-49 -59 0
57 -59 0
58 59 60 0
-58 -60 0
-59 -60 0
60 2 61 0
-60 -61 0
-2 -61 0
-60 -2 62 0
60 -62 0
2 -62 0
61 62 63 0
-61 -63 0
-62 -63 0
-56 63 64 0
56 -64 0
-63 -64 0
56 -63 65 0
-56 -65 0
63 -65 0
64 65 66 0
-64 -66 0
-65 -66 0
3 66 67 0
-3 -67 0
-66 -67 0
-3 -66 68 0
3 -68 0
66 -68 0
67 68 69 0
-67 -69 0
-68 -69 0
70 -71 72 0
-70 -72 0
71 -72 0
72 -73 74 0
-72 -74 0
73 -74 0
-72 73 75 0
72 -75 0
-73 -75 0
74 75 76 0
-74 -76 0
-75 -76 0
76 -58 77 0
-76 -77 0
58 -77 0
-76 58 78 0
76 -78 0
-58 -78 0
77 78 79 0
-77 -79 0
-78 -79 0
65 62 80 0
-65 -80 0
-62 -80 0
79 -80 81 0
-79 -81 0
80 -81 0
-79 80 82 0
79 -82 0
-80 -82 0
81 82 83 0
-81 -83 0
-82 -83 0
-84 -41 85 0
84 -85 0
41 -85 0
-36 44 86 0
36 -86 0
-44 -86 0
86 45 87 0
-86 -87 0
-45 -87 0
85 -87 88 0
-85 -88 0
87 -88 0
-85 87 89 0
85 -89 0
-87 -89 0
88 89 90 0
-88 -90 0
-89 -90 0
-91 -11 92 0
91 -92 0
11 -92 0
6 14 93 0
-6 -93 0
-14 -93 0
93 15 94 0
-93 -94 0
-15 -94 0
-92 94 95 0
92 -95 0
-94 -95 0
92 -94 96 0
-92 -96 0
94 -96 0
95 96 97 0
-95 -97 0
-96 -97 0
-98 -21 99 0
98 -99 0
21 -99 0
-16 24 100 0
16 -100 0
-24 -100 0
100 25 101 0
-100 -101 0
-25 -101 0
99 -101 102 0
-99 -102 0
101 -102 0
-97 102 103 0
97 -103 0
-102 -103 0
-104 -31 105 0
104 -105 0
31 -105 0
-26 34 106 0
26 -106 0
-34 -106 0
106 35 107 0
-106 -107 0
-35 -107 0
-105 107 108 0
105 -108 0
-107 -108 0
-103 108 109 0
103 -109 0
-108 -109 0
-90 -109 110 0
90 -110 0
109 -110 0
-99 101 111 0
99 -111 0
-101 -111 0
112 -4 113 0
-112 -113 0
4 -113 0
113 -5 114 0
-113 -114 0
5 -114 0
-113 5 115 0
113 -115 0
-5 -115 0
114 115 116 0
-114 -116 0
-115 -116 0
111 -116 117 0
-111 -117 0
116 -117 0
105 -107 118 0
-105 -118 0
107 -118 0
-117 118 119 0
117 -119 0
-118 -119 0
-110 -119 120 0
110 -120 0
119 -120 0
-121 -51 122 0
121 -122 0
51 -122 0
-46 54 123 0
46 -123 0
-54 -123 0
123 55 124 0
-123 -124 0
-55 -124 0
122 -124 125 0
-122 -125 0
124 -125 0
-122 124 126 0
122 -126 0
-124 -126 0
125 126 127 0
-125 -127 0
-126 -127 0
-120 -127 128 0
120 -128 0
127 -128 0
-83 -128 129 0
83 -129 0
128 -129 0
69 -129 130 0
-69 -130 0
129 -130 0
130 0
